result&benchmarks/Data/Ex1/verify/Output/btor2c-lazyMod.noninitstate_process_dc_iter2Output/Counterexample.3.smt2
(set-info :source |printed by MathSAT|)
(declare-fun |main::var_9@2| () (_ BitVec 8))
(declare-fun |main::expr_tmp_var_60_uchar@3| () (_ BitVec 8))
(declare-fun |main::var_15_arg_0@2| () (_ BitVec 8))
(declare-fun |main::expr_tmp_var_61_uchar@3| () (_ BitVec 8))
(declare-fun |main::bVar1@3| () (_ BitVec 8))
(declare-fun |main::bVar2@3| () (_ BitVec 8))
(declare-fun |assume::cond@2| () (_ BitVec 32))
(declare-fun |main::constr_16_arg_0@2| () (_ BitVec 8))
(declare-fun |main::expr_tmp_var_61_uchar@5| () (_ BitVec 8))
(declare-fun |main::bVar1@5| () (_ BitVec 8))
(declare-fun |main::bVar2@5| () (_ BitVec 8))
(declare-fun |assume::cond@4| () (_ BitVec 32))
(assert (let ((.def_379 ((_ zero_extend 24) |main::expr_tmp_var_61_uchar@5|)))(let ((.def_41 ((_ zero_extend 24) |main::expr_tmp_var_60_uchar@3|)))(let ((.def_380 (= .def_41 .def_379)))(let ((.def_375 (= |assume::cond@4| (_ bv0 32))))(let ((.def_377 (not .def_375)))(let ((.def_371 ((_ zero_extend 24) |main::bVar2@5|)))(let ((.def_373 (= .def_371 |assume::cond@4|)))(let ((.def_369 (= |main::bVar2@5| (_ bv1 8))))(let ((.def_362 (= |main::bVar1@5| (_ bv0 8))))(let ((.def_230 (bvnot |main::expr_tmp_var_61_uchar@3|)))(let ((.def_231 (bvand (_ bv1 8) .def_230)))(let ((.def_359 (= .def_231 |main::expr_tmp_var_61_uchar@5|)))(let ((.def_38 (= |main::bVar1@3| (_ bv0 8))))(let ((.def_40 (not .def_38)))(let ((.def_34 (= |main::bVar1@3| (_ bv1 8))))(let ((.def_28 (bvand (_ bv1 8) |main::var_15_arg_0@2|)))(let ((.def_30 (= .def_28 |main::expr_tmp_var_61_uchar@3|)))(let ((.def_18 (bvand (_ bv1 8) |main::var_9@2|)))(let ((.def_20 (= .def_18 |main::expr_tmp_var_60_uchar@3|)))(let ((.def_31 (and .def_20 .def_30)))(let ((.def_35 (and .def_31 .def_34)))(let ((.def_350 (and .def_35 .def_40)))(let ((.def_42 ((_ zero_extend 24) |main::expr_tmp_var_61_uchar@3|)))(let ((.def_43 (= .def_41 .def_42)))(let ((.def_44 (ite .def_43 (_ bv1 32) (_ bv0 32))))(let ((.def_45 (bvnot .def_44)))(let ((.def_47 (bvand (_ bv1 32) .def_45)))(let ((.def_48 (= .def_47 (_ bv0 32))))(let ((.def_49 (ite .def_48 (_ bv0 8) (_ bv1 8))))(let ((.def_52 (= .def_49 (_ bv0 8))))(let ((.def_55 (not .def_52)))(let ((.def_351 (and .def_55 .def_350)))(let ((.def_61 (= |main::bVar2@3| (_ bv1 8))))(let ((.def_352 (and .def_61 .def_351)))(let ((.def_65 ((_ zero_extend 24) |main::bVar2@3|)))(let ((.def_67 (= .def_65 |assume::cond@2|)))(let ((.def_353 (and .def_67 .def_352)))(let ((.def_69 (= |assume::cond@2| (_ bv0 32))))(let ((.def_72 (not .def_69)))(let ((.def_354 (and .def_72 .def_353)))(let ((.def_75 (not .def_43)))(let ((.def_355 (and .def_75 .def_354)))(let ((.def_192 ((_ zero_extend 24) |main::constr_16_arg_0@2|)))(let ((.def_194 (bvand (_ bv1 32) .def_192)))(let ((.def_195 (bvnot .def_194)))(let ((.def_197 (bvand (_ bv1 32) .def_195)))(let ((.def_198 (= .def_197 (_ bv0 32))))(let ((.def_356 (and .def_198 .def_355)))(let ((.def_218 (= .def_194 (_ bv0 32))))(let ((.def_219 (not .def_218)))(let ((.def_357 (and .def_219 .def_356)))(let ((.def_360 (and .def_357 .def_359)))(let ((.def_363 (and .def_360 .def_362)))(let ((.def_367 (and .def_362 .def_363)))(let ((.def_370 (and .def_367 .def_369)))(let ((.def_374 (and .def_370 .def_373)))(let ((.def_378 (and .def_374 .def_377)))(let ((.def_382 (and .def_378 .def_380))).def_382)))))))))))))))))))))))))))))))))))))))))))))))))))))))))))