result&benchmarks/Data/Ex1/verify/Output/btor2c-lazyMod.noninitstate_process_dc_iter2Output/Counterexample.3.txt
none:	N37 -{INIT GLOBAL VARS}-> N92
/usr/include/x86_64-linux-gnu/bits/types.h, line 31:	N92 -{typedef unsigned char __u_char;}-> N93
/usr/include/x86_64-linux-gnu/bits/types.h, line 32:	N93 -{typedef unsigned short int __u_short;}-> N94
/usr/include/x86_64-linux-gnu/bits/types.h, line 33:	N94 -{typedef unsigned int __u_int;}-> N95
/usr/include/x86_64-linux-gnu/bits/types.h, line 34:	N95 -{typedef unsigned long int __u_long;}-> N96
/usr/include/x86_64-linux-gnu/bits/types.h, line 37:	N96 -{typedef signed char __int8_t;}-> N97
/usr/include/x86_64-linux-gnu/bits/types.h, line 38:	N97 -{typedef unsigned char __uint8_t;}-> N98
/usr/include/x86_64-linux-gnu/bits/types.h, line 39:	N98 -{typedef signed short int __int16_t;}-> N99
/usr/include/x86_64-linux-gnu/bits/types.h, line 40:	N99 -{typedef unsigned short int __uint16_t;}-> N100
/usr/include/x86_64-linux-gnu/bits/types.h, line 41:	N100 -{typedef signed int __int32_t;}-> N101
/usr/include/x86_64-linux-gnu/bits/types.h, line 42:	N101 -{typedef unsigned int __uint32_t;}-> N102
/usr/include/x86_64-linux-gnu/bits/types.h, line 44:	N102 -{typedef signed long int __int64_t;}-> N103
/usr/include/x86_64-linux-gnu/bits/types.h, line 45:	N103 -{typedef unsigned long int __uint64_t;}-> N104
/usr/include/x86_64-linux-gnu/bits/types.h, line 52:	N104 -{typedef __int8_t __int_least8_t;}-> N105
/usr/include/x86_64-linux-gnu/bits/types.h, line 53:	N105 -{typedef __uint8_t __uint_least8_t;}-> N106
/usr/include/x86_64-linux-gnu/bits/types.h, line 54:	N106 -{typedef __int16_t __int_least16_t;}-> N107
/usr/include/x86_64-linux-gnu/bits/types.h, line 55:	N107 -{typedef __uint16_t __uint_least16_t;}-> N108
/usr/include/x86_64-linux-gnu/bits/types.h, line 56:	N108 -{typedef __int32_t __int_least32_t;}-> N109
/usr/include/x86_64-linux-gnu/bits/types.h, line 57:	N109 -{typedef __uint32_t __uint_least32_t;}-> N110
/usr/include/x86_64-linux-gnu/bits/types.h, line 58:	N110 -{typedef __int64_t __int_least64_t;}-> N111
/usr/include/x86_64-linux-gnu/bits/types.h, line 59:	N111 -{typedef __uint64_t __uint_least64_t;}-> N112
/usr/include/x86_64-linux-gnu/bits/types.h, line 63:	N112 -{typedef long int __quad_t;}-> N113
/usr/include/x86_64-linux-gnu/bits/types.h, line 64:	N113 -{typedef unsigned long int __u_quad_t;}-> N114
/usr/include/x86_64-linux-gnu/bits/types.h, line 72:	N114 -{typedef long int __intmax_t;}-> N115
/usr/include/x86_64-linux-gnu/bits/types.h, line 73:	N115 -{typedef unsigned long int __uintmax_t;}-> N116
/usr/include/x86_64-linux-gnu/bits/types.h, line 145:	N116 -{typedef unsigned long int __dev_t;}-> N117
/usr/include/x86_64-linux-gnu/bits/types.h, line 146:	N117 -{typedef unsigned int __uid_t;}-> N118
/usr/include/x86_64-linux-gnu/bits/types.h, line 147:	N118 -{typedef unsigned int __gid_t;}-> N119
/usr/include/x86_64-linux-gnu/bits/types.h, line 148:	N119 -{typedef unsigned long int __ino_t;}-> N120
/usr/include/x86_64-linux-gnu/bits/types.h, line 149:	N120 -{typedef unsigned long int __ino64_t;}-> N121
/usr/include/x86_64-linux-gnu/bits/types.h, line 150:	N121 -{typedef unsigned int __mode_t;}-> N122
/usr/include/x86_64-linux-gnu/bits/types.h, line 151:	N122 -{typedef unsigned long int __nlink_t;}-> N123
/usr/include/x86_64-linux-gnu/bits/types.h, line 152:	N123 -{typedef long int __off_t;}-> N124
/usr/include/x86_64-linux-gnu/bits/types.h, line 153:	N124 -{typedef long int __off64_t;}-> N125
/usr/include/x86_64-linux-gnu/bits/types.h, line 154:	N125 -{typedef int __pid_t;}-> N126
/usr/include/x86_64-linux-gnu/bits/types.h, line 155:	N126 -{struct __anon_type___fsid_t {   int __val[2]; } ;}-> N127
/usr/include/x86_64-linux-gnu/bits/types.h, line 155:	N127 -{typedef struct __anon_type___fsid_t __fsid_t;}-> N128
/usr/include/x86_64-linux-gnu/bits/types.h, line 156:	N128 -{typedef long int __clock_t;}-> N129
/usr/include/x86_64-linux-gnu/bits/types.h, line 157:	N129 -{typedef unsigned long int __rlim_t;}-> N130
/usr/include/x86_64-linux-gnu/bits/types.h, line 158:	N130 -{typedef unsigned long int __rlim64_t;}-> N131
/usr/include/x86_64-linux-gnu/bits/types.h, line 159:	N131 -{typedef unsigned int __id_t;}-> N132
/usr/include/x86_64-linux-gnu/bits/types.h, line 160:	N132 -{typedef long int __time_t;}-> N133
/usr/include/x86_64-linux-gnu/bits/types.h, line 161:	N133 -{typedef unsigned int __useconds_t;}-> N134
/usr/include/x86_64-linux-gnu/bits/types.h, line 162:	N134 -{typedef long int __suseconds_t;}-> N135
/usr/include/x86_64-linux-gnu/bits/types.h, line 163:	N135 -{typedef long int __suseconds64_t;}-> N136
/usr/include/x86_64-linux-gnu/bits/types.h, line 165:	N136 -{typedef int __daddr_t;}-> N137
/usr/include/x86_64-linux-gnu/bits/types.h, line 166:	N137 -{typedef int __key_t;}-> N138
/usr/include/x86_64-linux-gnu/bits/types.h, line 169:	N138 -{typedef int __clockid_t;}-> N139
/usr/include/x86_64-linux-gnu/bits/types.h, line 172:	N139 -{typedef void *__timer_t;}-> N140
/usr/include/x86_64-linux-gnu/bits/types.h, line 175:	N140 -{typedef long int __blksize_t;}-> N141
/usr/include/x86_64-linux-gnu/bits/types.h, line 180:	N141 -{typedef long int __blkcnt_t;}-> N142
/usr/include/x86_64-linux-gnu/bits/types.h, line 181:	N142 -{typedef long int __blkcnt64_t;}-> N143
/usr/include/x86_64-linux-gnu/bits/types.h, line 184:	N143 -{typedef unsigned long int __fsblkcnt_t;}-> N144
/usr/include/x86_64-linux-gnu/bits/types.h, line 185:	N144 -{typedef unsigned long int __fsblkcnt64_t;}-> N145
/usr/include/x86_64-linux-gnu/bits/types.h, line 188:	N145 -{typedef unsigned long int __fsfilcnt_t;}-> N146
/usr/include/x86_64-linux-gnu/bits/types.h, line 189:	N146 -{typedef unsigned long int __fsfilcnt64_t;}-> N147
/usr/include/x86_64-linux-gnu/bits/types.h, line 192:	N147 -{typedef long int __fsword_t;}-> N148
/usr/include/x86_64-linux-gnu/bits/types.h, line 194:	N148 -{typedef long int __ssize_t;}-> N149
/usr/include/x86_64-linux-gnu/bits/types.h, line 197:	N149 -{typedef long int __syscall_slong_t;}-> N150
/usr/include/x86_64-linux-gnu/bits/types.h, line 199:	N150 -{typedef unsigned long int __syscall_ulong_t;}-> N151
/usr/include/x86_64-linux-gnu/bits/types.h, line 203:	N151 -{typedef __off64_t __loff_t;}-> N152
/usr/include/x86_64-linux-gnu/bits/types.h, line 204:	N152 -{typedef char *__caddr_t;}-> N153
/usr/include/x86_64-linux-gnu/bits/types.h, line 207:	N153 -{typedef long int __intptr_t;}-> N154
/usr/include/x86_64-linux-gnu/bits/types.h, line 210:	N154 -{typedef unsigned int __socklen_t;}-> N155
/usr/include/x86_64-linux-gnu/bits/types.h, line 215:	N155 -{typedef int __sig_atomic_t;}-> N156
/usr/include/x86_64-linux-gnu/bits/stdint-intn.h, line 24:	N156 -{typedef __int8_t int8_t;}-> N157
/usr/include/x86_64-linux-gnu/bits/stdint-intn.h, line 25:	N157 -{typedef __int16_t int16_t;}-> N158
/usr/include/x86_64-linux-gnu/bits/stdint-intn.h, line 26:	N158 -{typedef __int32_t int32_t;}-> N159
/usr/include/x86_64-linux-gnu/bits/stdint-intn.h, line 27:	N159 -{typedef __int64_t int64_t;}-> N160
/usr/include/x86_64-linux-gnu/bits/stdint-uintn.h, line 24:	N160 -{typedef __uint8_t uint8_t;}-> N161
/usr/include/x86_64-linux-gnu/bits/stdint-uintn.h, line 25:	N161 -{typedef __uint16_t uint16_t;}-> N162
/usr/include/x86_64-linux-gnu/bits/stdint-uintn.h, line 26:	N162 -{typedef __uint32_t uint32_t;}-> N163
/usr/include/x86_64-linux-gnu/bits/stdint-uintn.h, line 27:	N163 -{typedef __uint64_t uint64_t;}-> N164
/usr/include/stdint.h, line 43:	N164 -{typedef __int_least8_t int_least8_t;}-> N165
/usr/include/stdint.h, line 44:	N165 -{typedef __int_least16_t int_least16_t;}-> N166
/usr/include/stdint.h, line 45:	N166 -{typedef __int_least32_t int_least32_t;}-> N167
/usr/include/stdint.h, line 46:	N167 -{typedef __int_least64_t int_least64_t;}-> N168
/usr/include/stdint.h, line 49:	N168 -{typedef __uint_least8_t uint_least8_t;}-> N169
/usr/include/stdint.h, line 50:	N169 -{typedef __uint_least16_t uint_least16_t;}-> N170
/usr/include/stdint.h, line 51:	N170 -{typedef __uint_least32_t uint_least32_t;}-> N171
/usr/include/stdint.h, line 52:	N171 -{typedef __uint_least64_t uint_least64_t;}-> N172
/usr/include/stdint.h, line 58:	N172 -{typedef signed char int_fast8_t;}-> N173
/usr/include/stdint.h, line 60:	N173 -{typedef long int int_fast16_t;}-> N174
/usr/include/stdint.h, line 61:	N174 -{typedef long int int_fast32_t;}-> N175
/usr/include/stdint.h, line 62:	N175 -{typedef long int int_fast64_t;}-> N176
/usr/include/stdint.h, line 71:	N176 -{typedef unsigned char uint_fast8_t;}-> N177
/usr/include/stdint.h, line 73:	N177 -{typedef unsigned long int uint_fast16_t;}-> N178
/usr/include/stdint.h, line 74:	N178 -{typedef unsigned long int uint_fast32_t;}-> N179
/usr/include/stdint.h, line 75:	N179 -{typedef unsigned long int uint_fast64_t;}-> N180
/usr/include/stdint.h, line 87:	N180 -{typedef long int intptr_t;}-> N181
/usr/include/stdint.h, line 90:	N181 -{typedef unsigned long int uintptr_t;}-> N182
/usr/include/stdint.h, line 101:	N182 -{typedef __intmax_t intmax_t;}-> N183
/usr/include/stdint.h, line 102:	N183 -{typedef __uintmax_t uintmax_t;}-> N184
/usr/lib/gcc/x86_64-linux-gnu/11/include/stddef.h, line 209:	N184 -{typedef unsigned long int size_t;}-> N185
/usr/lib/gcc/x86_64-linux-gnu/11/include/stddef.h, line 321:	N185 -{typedef int wchar_t;}-> N186
/usr/include/stdlib.h, lines 59-63:	N186 -{struct __anon_type_div_t {   int quot;   int rem; } ;}-> N187
/usr/include/stdlib.h, lines 59-63:	N187 -{typedef struct __anon_type_div_t div_t;}-> N188
/usr/include/stdlib.h, lines 67-71:	N188 -{struct __anon_type_ldiv_t {   long int quot;   long int rem; } ;}-> N189
/usr/include/stdlib.h, lines 67-71:	N189 -{typedef struct __anon_type_ldiv_t ldiv_t;}-> N190
/usr/include/stdlib.h, lines 77-81:	N190 -{struct __anon_type_lldiv_t {   long long int quot;   long long int rem; } ;}-> N191
/usr/include/stdlib.h, lines 77-81:	N191 -{typedef struct __anon_type_lldiv_t lldiv_t;}-> N192
/usr/include/stdlib.h, line 98:	N192 -{size_t __ctype_get_mb_cur_max();}-> N193
/usr/include/stdlib.h, lines 102-103:	N193 -{double atof(const char *__nptr);}-> N194
/usr/include/stdlib.h, lines 105-106:	N194 -{int atoi(const char *__nptr);}-> N195
/usr/include/stdlib.h, lines 108-109:	N195 -{long int atol(const char *__nptr);}-> N196
/usr/include/stdlib.h, lines 113-114:	N196 -{long long int atoll(const char *__nptr);}-> N197
/usr/include/stdlib.h, lines 118-120:	N197 -{double strtod(const char *__nptr, char **__endptr);}-> N198
/usr/include/stdlib.h, lines 124-125:	N198 -{float strtof(const char *__nptr, char **__endptr);}-> N199
/usr/include/stdlib.h, lines 127-129:	N199 -{long double strtold(const char *__nptr, char **__endptr);}-> N200
/usr/include/stdlib.h, lines 177-179:	N200 -{long int strtol(const char *__nptr, char **__endptr, int __base);}-> N201
/usr/include/stdlib.h, lines 181-183:	N201 -{unsigned long int strtoul(const char *__nptr, char **__endptr, int __base);}-> N202
/usr/include/stdlib.h, lines 188-190:	N202 -{long long int strtoq(const char *__nptr, char **__endptr, int __base);}-> N203
/usr/include/stdlib.h, lines 193-195:	N203 -{unsigned long long int strtouq(const char *__nptr, char **__endptr, int __base);}-> N204
/usr/include/stdlib.h, lines 201-203:	N204 -{long long int strtoll(const char *__nptr, char **__endptr, int __base);}-> N205
/usr/include/stdlib.h, lines 206-208:	N205 -{unsigned long long int strtoull(const char *__nptr, char **__endptr, int __base);}-> N206
/usr/include/stdlib.h, line 386:	N206 -{char *l64a(long int __n);}-> N207
/usr/include/stdlib.h, lines 389-390:	N207 -{long int a64l(const char *__s);}-> N208
/usr/include/x86_64-linux-gnu/sys/types.h, line 33:	N208 -{typedef __u_char u_char;}-> N209
/usr/include/x86_64-linux-gnu/sys/types.h, line 34:	N209 -{typedef __u_short u_short;}-> N210
/usr/include/x86_64-linux-gnu/sys/types.h, line 35:	N210 -{typedef __u_int u_int;}-> N211
/usr/include/x86_64-linux-gnu/sys/types.h, line 36:	N211 -{typedef __u_long u_long;}-> N212
/usr/include/x86_64-linux-gnu/sys/types.h, line 37:	N212 -{typedef __quad_t quad_t;}-> N213
/usr/include/x86_64-linux-gnu/sys/types.h, line 38:	N213 -{typedef __u_quad_t u_quad_t;}-> N214
/usr/include/x86_64-linux-gnu/sys/types.h, line 39:	N214 -{typedef __fsid_t fsid_t;}-> N215
/usr/include/x86_64-linux-gnu/sys/types.h, line 42:	N215 -{typedef __loff_t loff_t;}-> N216
/usr/include/x86_64-linux-gnu/sys/types.h, line 47:	N216 -{typedef __ino_t ino_t;}-> N217
/usr/include/x86_64-linux-gnu/sys/types.h, line 59:	N217 -{typedef __dev_t dev_t;}-> N218
/usr/include/x86_64-linux-gnu/sys/types.h, line 64:	N218 -{typedef __gid_t gid_t;}-> N219
/usr/include/x86_64-linux-gnu/sys/types.h, line 69:	N219 -{typedef __mode_t mode_t;}-> N220
/usr/include/x86_64-linux-gnu/sys/types.h, line 74:	N220 -{typedef __nlink_t nlink_t;}-> N221
/usr/include/x86_64-linux-gnu/sys/types.h, line 79:	N221 -{typedef __uid_t uid_t;}-> N222
/usr/include/x86_64-linux-gnu/sys/types.h, line 85:	N222 -{typedef __off_t off_t;}-> N223
/usr/include/x86_64-linux-gnu/sys/types.h, line 97:	N223 -{typedef __pid_t pid_t;}-> N224
/usr/include/x86_64-linux-gnu/sys/types.h, line 103:	N224 -{typedef __id_t id_t;}-> N225
/usr/include/x86_64-linux-gnu/sys/types.h, line 108:	N225 -{typedef __ssize_t ssize_t;}-> N226
/usr/include/x86_64-linux-gnu/sys/types.h, line 114:	N226 -{typedef __daddr_t daddr_t;}-> N227
/usr/include/x86_64-linux-gnu/sys/types.h, line 115:	N227 -{typedef __caddr_t caddr_t;}-> N228
/usr/include/x86_64-linux-gnu/sys/types.h, line 121:	N228 -{typedef __key_t key_t;}-> N229
/usr/include/x86_64-linux-gnu/bits/types/clock_t.h, line 7:	N229 -{typedef __clock_t clock_t;}-> N230
/usr/include/x86_64-linux-gnu/bits/types/clockid_t.h, line 7:	N230 -{typedef __clockid_t clockid_t;}-> N231
/usr/include/x86_64-linux-gnu/bits/types/time_t.h, line 10:	N231 -{typedef __time_t time_t;}-> N232
/usr/include/x86_64-linux-gnu/bits/types/timer_t.h, line 7:	N232 -{typedef __timer_t timer_t;}-> N233
/usr/include/x86_64-linux-gnu/sys/types.h, line 148:	N233 -{typedef unsigned long int ulong;}-> N234
/usr/include/x86_64-linux-gnu/sys/types.h, line 149:	N234 -{typedef unsigned short int ushort;}-> N235
/usr/include/x86_64-linux-gnu/sys/types.h, line 150:	N235 -{typedef unsigned int uint;}-> N236
/usr/include/x86_64-linux-gnu/sys/types.h, line 158:	N236 -{typedef __uint8_t u_int8_t;}-> N237
/usr/include/x86_64-linux-gnu/sys/types.h, line 159:	N237 -{typedef __uint16_t u_int16_t;}-> N238
/usr/include/x86_64-linux-gnu/sys/types.h, line 160:	N238 -{typedef __uint32_t u_int32_t;}-> N239
/usr/include/x86_64-linux-gnu/sys/types.h, line 161:	N239 -{typedef __uint64_t u_int64_t;}-> N240
/usr/include/x86_64-linux-gnu/sys/types.h, line 164:	N240 -{typedef signed int register_t;}-> N241
/usr/include/x86_64-linux-gnu/bits/byteswap.h, lines 33-41:	N241 -{__uint16_t __bswap_16(__uint16_t __bsx);}-> N242
/usr/include/x86_64-linux-gnu/bits/byteswap.h, lines 48-56:	N242 -{__uint32_t __bswap_32(__uint32_t __bsx);}-> N243
/usr/include/x86_64-linux-gnu/bits/byteswap.h, lines 69-77:	N243 -{__uint64_t __bswap_64(__uint64_t __bsx);}-> N244
/usr/include/x86_64-linux-gnu/bits/uintn-identity.h, lines 32-36:	N244 -{__uint16_t __uint16_identity(__uint16_t __x);}-> N245
/usr/include/x86_64-linux-gnu/bits/uintn-identity.h, lines 38-42:	N245 -{__uint32_t __uint32_identity(__uint32_t __x);}-> N246
/usr/include/x86_64-linux-gnu/bits/uintn-identity.h, lines 44-48:	N246 -{__uint64_t __uint64_identity(__uint64_t __x);}-> N247
/usr/include/x86_64-linux-gnu/bits/types/__sigset_t.h, lines 5-8:	N247 -{struct __anon_type___sigset_t {   unsigned long int __val[32UL]; } ;}-> N248
/usr/include/x86_64-linux-gnu/bits/types/__sigset_t.h, lines 5-8:	N248 -{typedef struct __anon_type___sigset_t __sigset_t;}-> N249
/usr/include/x86_64-linux-gnu/bits/types/sigset_t.h, line 7:	N249 -{typedef __sigset_t sigset_t;}-> N250
/usr/include/x86_64-linux-gnu/bits/types/struct_timeval.h, lines 8-17:	N250 -{struct timeval {   __time_t tv_sec;   __suseconds_t tv_usec; } ;}-> N251
/usr/include/x86_64-linux-gnu/bits/types/struct_timespec.h, lines 11-31:	N251 -{struct timespec {   __time_t tv_sec;   __syscall_slong_t tv_nsec; } ;}-> N252
/usr/include/x86_64-linux-gnu/sys/select.h, line 43:	N252 -{typedef __suseconds_t suseconds_t;}-> N253
/usr/include/x86_64-linux-gnu/sys/select.h, line 49:	N253 -{typedef long int __fd_mask;}-> N254
/usr/include/x86_64-linux-gnu/sys/select.h, lines 59-70:	N254 -{struct __anon_type_fd_set {   __fd_mask __fds_bits[32]; } ;}-> N255
/usr/include/x86_64-linux-gnu/sys/select.h, lines 59-70:	N255 -{typedef struct __anon_type_fd_set fd_set;}-> N256
/usr/include/x86_64-linux-gnu/sys/select.h, line 77:	N256 -{typedef __fd_mask fd_mask;}-> N257
/usr/include/x86_64-linux-gnu/sys/select.h, lines 102-105:	N257 -{int select(int __nfds, fd_set *__readfds, fd_set *__writefds, fd_set *__exceptfds, struct timeval *__timeout);}-> N258
/usr/include/x86_64-linux-gnu/sys/select.h, lines 127-131:	N258 -{int pselect(int __nfds, fd_set *__readfds, fd_set *__writefds, fd_set *__exceptfds, const struct timespec *__timeout, const __sigset_t *__sigmask);}-> N259
/usr/include/x86_64-linux-gnu/sys/types.h, line 185:	N259 -{typedef __blksize_t blksize_t;}-> N260
/usr/include/x86_64-linux-gnu/sys/types.h, line 192:	N260 -{typedef __blkcnt_t blkcnt_t;}-> N261
/usr/include/x86_64-linux-gnu/sys/types.h, line 196:	N261 -{typedef __fsblkcnt_t fsblkcnt_t;}-> N262
/usr/include/x86_64-linux-gnu/sys/types.h, line 200:	N262 -{typedef __fsfilcnt_t fsfilcnt_t;}-> N263
/usr/include/x86_64-linux-gnu/bits/atomic_wide_counter.h, lines 28-32:	N263 -{struct __anon_type_0 {   unsigned int __low;   unsigned int __high; } ;}-> N264
/usr/include/x86_64-linux-gnu/bits/atomic_wide_counter.h, lines 25-33:	N264 -{union __anon_type___atomic_wide_counter {   unsigned long long int __value64;   struct __anon_type_0 __value32; } ;}-> N265
/usr/include/x86_64-linux-gnu/bits/atomic_wide_counter.h, lines 25-33:	N265 -{typedef union __anon_type___atomic_wide_counter __atomic_wide_counter;}-> N266
/usr/include/x86_64-linux-gnu/bits/thread-shared-types.h, lines 51-55:	N266 -{struct __pthread_internal_list {   struct __pthread_internal_list *__prev;   struct __pthread_internal_list *__next; } ;}-> N267
/usr/include/x86_64-linux-gnu/bits/thread-shared-types.h, lines 51-55:	N267 -{typedef struct __pthread_internal_list __pthread_list_t;}-> N268
/usr/include/x86_64-linux-gnu/bits/thread-shared-types.h, lines 57-60:	N268 -{struct __pthread_internal_slist {   struct __pthread_internal_slist *__next; } ;}-> N269
/usr/include/x86_64-linux-gnu/bits/thread-shared-types.h, lines 57-60:	N269 -{typedef struct __pthread_internal_slist __pthread_slist_t;}-> N270
/usr/include/x86_64-linux-gnu/bits/struct_mutex.h, lines 22-53:	N270 -{struct __pthread_mutex_s {   int __lock;   unsigned int __count;   int __owner;   unsigned int __nusers;   int __kind;   short __spins;   short __elision;   __pthread_list_t __list; } ;}-> N271
/usr/include/x86_64-linux-gnu/bits/struct_rwlock.h, lines 23-55:	N271 -{struct __pthread_rwlock_arch_t {   unsigned int __readers;   unsigned int __writers;   unsigned int __wrphase_futex;   unsigned int __writers_futex;   unsigned int __pad3;   unsigned int __pad4;   int __cur_writer;   int __shared;   signed char __rwelision;   unsigned char __pad1[7];   unsigned long int __pad2;   unsigned int __flags; } ;}-> N272
/usr/include/x86_64-linux-gnu/bits/thread-shared-types.h, lines 94-103:	N272 -{struct __pthread_cond_s {   __atomic_wide_counter __wseq;   __atomic_wide_counter __g1_start;   unsigned int __g_refs[2];   unsigned int __g_size[2];   unsigned int __g1_orig_size;   unsigned int __wrefs;   unsigned int __g_signals[2]; } ;}-> N273
/usr/include/x86_64-linux-gnu/bits/thread-shared-types.h, line 105:	N273 -{typedef unsigned int __tss_t;}-> N274
/usr/include/x86_64-linux-gnu/bits/thread-shared-types.h, line 106:	N274 -{typedef unsigned long int __thrd_t;}-> N275
/usr/include/x86_64-linux-gnu/bits/thread-shared-types.h, lines 108-111:	N275 -{struct __anon_type___once_flag {   int __data; } ;}-> N276
/usr/include/x86_64-linux-gnu/bits/thread-shared-types.h, lines 108-111:	N276 -{typedef struct __anon_type___once_flag __once_flag;}-> N277
/usr/include/x86_64-linux-gnu/bits/pthreadtypes.h, line 27:	N277 -{typedef unsigned long int pthread_t;}-> N278
/usr/include/x86_64-linux-gnu/bits/pthreadtypes.h, lines 32-36:	N278 -{union __anon_type_pthread_mutexattr_t {   char __size[4];   int __align; } ;}-> N279
/usr/include/x86_64-linux-gnu/bits/pthreadtypes.h, lines 32-36:	N279 -{typedef union __anon_type_pthread_mutexattr_t pthread_mutexattr_t;}-> N280
/usr/include/x86_64-linux-gnu/bits/pthreadtypes.h, lines 41-45:	N280 -{union __anon_type_pthread_condattr_t {   char __size[4];   int __align; } ;}-> N281
/usr/include/x86_64-linux-gnu/bits/pthreadtypes.h, lines 41-45:	N281 -{typedef union __anon_type_pthread_mutexattr_t pthread_condattr_t;}-> N282
/usr/include/x86_64-linux-gnu/bits/pthreadtypes.h, line 49:	N282 -{typedef unsigned int pthread_key_t;}-> N283
/usr/include/x86_64-linux-gnu/bits/pthreadtypes.h, line 53:	N283 -{typedef int pthread_once_t;}-> N284
/usr/include/x86_64-linux-gnu/bits/pthreadtypes.h, lines 56-60:	N284 -{union pthread_attr_t {   char __size[56];   long int __align; } ;}-> N285
/usr/include/x86_64-linux-gnu/bits/pthreadtypes.h, line 62:	N285 -{typedef union pthread_attr_t pthread_attr_t;}-> N286
/usr/include/x86_64-linux-gnu/bits/pthreadtypes.h, lines 67-72:	N286 -{union __anon_type_pthread_mutex_t {   struct __pthread_mutex_s __data;   char __size[40];   long int __align; } ;}-> N287
/usr/include/x86_64-linux-gnu/bits/pthreadtypes.h, lines 67-72:	N287 -{typedef union __anon_type_pthread_mutex_t pthread_mutex_t;}-> N288
/usr/include/x86_64-linux-gnu/bits/pthreadtypes.h, lines 75-80:	N288 -{union __anon_type_pthread_cond_t {   struct __pthread_cond_s __data;   char __size[48];   long long int __align; } ;}-> N289
/usr/include/x86_64-linux-gnu/bits/pthreadtypes.h, lines 75-80:	N289 -{typedef union __anon_type_pthread_cond_t pthread_cond_t;}-> N290
/usr/include/x86_64-linux-gnu/bits/pthreadtypes.h, lines 86-91:	N290 -{union __anon_type_pthread_rwlock_t {   struct __pthread_rwlock_arch_t __data;   char __size[56];   long int __align; } ;}-> N291
/usr/include/x86_64-linux-gnu/bits/pthreadtypes.h, lines 86-91:	N291 -{typedef union __anon_type_pthread_rwlock_t pthread_rwlock_t;}-> N292
/usr/include/x86_64-linux-gnu/bits/pthreadtypes.h, lines 93-97:	N292 -{union __anon_type_pthread_rwlockattr_t {   char __size[8];   long int __align; } ;}-> N293
/usr/include/x86_64-linux-gnu/bits/pthreadtypes.h, lines 93-97:	N293 -{typedef union __anon_type_pthread_rwlockattr_t pthread_rwlockattr_t;}-> N294
/usr/include/x86_64-linux-gnu/bits/pthreadtypes.h, line 103:	N294 -{typedef volatile int pthread_spinlock_t;}-> N295
/usr/include/x86_64-linux-gnu/bits/pthreadtypes.h, lines 108-112:	N295 -{union __anon_type_pthread_barrier_t {   char __size[32];   long int __align; } ;}-> N296
/usr/include/x86_64-linux-gnu/bits/pthreadtypes.h, lines 108-112:	N296 -{typedef union __anon_type_pthread_barrier_t pthread_barrier_t;}-> N297
/usr/include/x86_64-linux-gnu/bits/pthreadtypes.h, lines 114-118:	N297 -{union __anon_type_pthread_barrierattr_t {   char __size[4];   int __align; } ;}-> N298
/usr/include/x86_64-linux-gnu/bits/pthreadtypes.h, lines 114-118:	N298 -{typedef union __anon_type_pthread_mutexattr_t pthread_barrierattr_t;}-> N299
/usr/include/stdlib.h, line 402:	N299 -{long int random();}-> N300
/usr/include/stdlib.h, line 405:	N300 -{void srandom(unsigned int __seed);}-> N301
/usr/include/stdlib.h, lines 411-412:	N301 -{char *initstate(unsigned int __seed, char *__statebuf, size_t __statelen);}-> N302
/usr/include/stdlib.h, line 416:	N302 -{char *setstate(char *__statebuf);}-> N303
/usr/include/stdlib.h, lines 424-433:	N303 -{struct random_data {   int32_t *fptr;   int32_t *rptr;   int32_t *state;   int rand_type;   int rand_deg;   int rand_sep;   int32_t *end_ptr; } ;}-> N304
/usr/include/stdlib.h, lines 435-436:	N304 -{int random_r(struct random_data *__buf, int32_t *__result);}-> N305
/usr/include/stdlib.h, lines 438-439:	N305 -{int srandom_r(unsigned int __seed, struct random_data *__buf);}-> N306
/usr/include/stdlib.h, lines 441-444:	N306 -{int initstate_r(unsigned int __seed, char *__statebuf, size_t __statelen, struct random_data *__buf);}-> N307
/usr/include/stdlib.h, lines 446-448:	N307 -{int setstate_r(char *__statebuf, struct random_data *__buf);}-> N308
/usr/include/stdlib.h, line 454:	N308 -{int rand();}-> N309
/usr/include/stdlib.h, line 456:	N309 -{void srand(unsigned int __seed);}-> N310
/usr/include/stdlib.h, line 460:	N310 -{int rand_r(unsigned int *__seed);}-> N311
/usr/include/stdlib.h, line 468:	N311 -{double drand48();}-> N312
/usr/include/stdlib.h, line 469:	N312 -{double erand48(unsigned short int __xsubi[3]);}-> N313
/usr/include/stdlib.h, line 472:	N313 -{long int lrand48();}-> N314
/usr/include/stdlib.h, lines 473-474:	N314 -{long int nrand48(unsigned short int __xsubi[3]);}-> N315
/usr/include/stdlib.h, line 477:	N315 -{long int mrand48();}-> N316
/usr/include/stdlib.h, lines 478-479:	N316 -{long int jrand48(unsigned short int __xsubi[3]);}-> N317
/usr/include/stdlib.h, line 482:	N317 -{void srand48(long int __seedval);}-> N318
/usr/include/stdlib.h, lines 483-484:	N318 -{unsigned short int *seed48(unsigned short int __seed16v[3]);}-> N319
/usr/include/stdlib.h, line 485:	N319 -{void lcong48(unsigned short int __param[7]);}-> N320
/usr/include/stdlib.h, lines 491-499:	N320 -{struct drand48_data {   unsigned short int __x[3];   unsigned short int __old_x[3];   unsigned short int __c;   unsigned short int __init;   unsigned long long int __a; } ;}-> N321
/usr/include/stdlib.h, lines 502-503:	N321 -{int drand48_r(struct drand48_data *__buffer, double *__result);}-> N322
/usr/include/stdlib.h, lines 504-506:	N322 -{int erand48_r(unsigned short int __xsubi[3], struct drand48_data *__buffer, double *__result);}-> N323
/usr/include/stdlib.h, lines 509-511:	N323 -{int lrand48_r(struct drand48_data *__buffer, long int *__result);}-> N324
/usr/include/stdlib.h, lines 512-515:	N324 -{int nrand48_r(unsigned short int __xsubi[3], struct drand48_data *__buffer, long int *__result);}-> N325
/usr/include/stdlib.h, lines 518-520:	N325 -{int mrand48_r(struct drand48_data *__buffer, long int *__result);}-> N326
/usr/include/stdlib.h, lines 521-524:	N326 -{int jrand48_r(unsigned short int __xsubi[3], struct drand48_data *__buffer, long int *__result);}-> N327
/usr/include/stdlib.h, lines 527-528:	N327 -{int srand48_r(long int __seedval, struct drand48_data *__buffer);}-> N328
/usr/include/stdlib.h, lines 530-531:	N328 -{int seed48_r(unsigned short int __seed16v[3], struct drand48_data *__buffer);}-> N329
/usr/include/stdlib.h, lines 533-535:	N329 -{int lcong48_r(unsigned short int __param[7], struct drand48_data *__buffer);}-> N330
/usr/include/stdlib.h, lines 540-541:	N330 -{void *malloc(size_t __size);}-> N331
/usr/include/stdlib.h, lines 543-544:	N331 -{void *calloc(size_t __nmemb, size_t __size);}-> N332
/usr/include/stdlib.h, lines 551-552:	N332 -{void *realloc(void *__ptr, size_t __size);}-> N333
/usr/include/stdlib.h, line 555:	N333 -{void free(void *__ptr);}-> N334
/usr/include/stdlib.h, lines 563-566:	N334 -{void *reallocarray(void *__ptr, size_t __nmemb, size_t __size);}-> N335
/usr/include/alloca.h, line 32:	N335 -{void *alloca(size_t __size);}-> N336
/usr/include/stdlib.h, lines 580-581:	N336 -{void *valloc(size_t __size);}-> N337
/usr/include/stdlib.h, lines 586-587:	N337 -{int posix_memalign(void **__memptr, size_t __alignment, size_t __size);}-> N338
/usr/include/stdlib.h, lines 592-594:	N338 -{void *aligned_alloc(size_t __alignment, size_t __size);}-> N339
/usr/include/stdlib.h, line 598:	N339 -{void abort();}-> N340
/usr/include/stdlib.h, line 602:	N340 -{int atexit(void (*__func)());}-> N341
/usr/include/stdlib.h, line 610:	N341 -{int at_quick_exit(void (*__func)());}-> N342
/usr/include/stdlib.h, lines 617-618:	N342 -{int on_exit(void (*__func)(int __status, void *__arg), void *__arg);}-> N343
/usr/include/stdlib.h, line 624:	N343 -{void exit(int __status);}-> N344
/usr/include/stdlib.h, line 630:	N344 -{void quick_exit(int __status);}-> N345
/usr/include/stdlib.h, line 636:	N345 -{void _Exit(int __status);}-> N346
/usr/include/stdlib.h, line 641:	N346 -{char *getenv(const char *__name);}-> N347
/usr/include/stdlib.h, line 654:	N347 -{int putenv(char *__string);}-> N348
/usr/include/stdlib.h, lines 660-661:	N348 -{int setenv(const char *__name, const char *__value, int __replace);}-> N349
/usr/include/stdlib.h, line 664:	N349 -{int unsetenv(const char *__name);}-> N350
/usr/include/stdlib.h, line 671:	N350 -{int clearenv();}-> N351
/usr/include/stdlib.h, line 682:	N351 -{char *mktemp(char *__template);}-> N352
/usr/include/stdlib.h, line 695:	N352 -{int mkstemp(char *__template);}-> N353
/usr/include/stdlib.h, line 717:	N353 -{int mkstemps(char *__template, int __suffixlen);}-> N354
/usr/include/stdlib.h, line 738:	N354 -{char *mkdtemp(char *__template);}-> N355
/usr/include/stdlib.h, line 791:	N355 -{int system(const char *__command);}-> N356
/usr/include/stdlib.h, lines 808-809:	N356 -{char *realpath(const char *__name, char *__resolved);}-> N357
/usr/include/stdlib.h, line 816:	N357 -{typedef int (*__compar_fn_t)(const void *, const void *);}-> N358
/usr/include/stdlib.h, lines 828-830:	N358 -{void *bsearch(const void *__key, const void *__base, size_t __nmemb, size_t __size, __compar_fn_t __compar);}-> N359
/usr/include/stdlib.h, lines 838-839:	N359 -{void qsort(void *__base, size_t __nmemb, size_t __size, __compar_fn_t __compar);}-> N360
/usr/include/stdlib.h, line 848:	N360 -{int abs(int __x);}-> N361
/usr/include/stdlib.h, line 849:	N361 -{long int labs(long int __x);}-> N362
/usr/include/stdlib.h, lines 852-853:	N362 -{long long int llabs(long long int __x);}-> N363
/usr/include/stdlib.h, lines 860-861:	N363 -{div_t div(int __numer, int __denom);}-> N364
/usr/include/stdlib.h, lines 862-863:	N364 -{ldiv_t ldiv(long int __numer, long int __denom);}-> N365
/usr/include/stdlib.h, lines 866-868:	N365 -{lldiv_t lldiv(long long int __numer, long long int __denom);}-> N366
/usr/include/stdlib.h, lines 880-881:	N366 -{char *ecvt(double __value, int __ndigit, int *__decpt, int *__sign);}-> N367
/usr/include/stdlib.h, lines 886-887:	N367 -{char *fcvt(double __value, int __ndigit, int *__decpt, int *__sign);}-> N368
/usr/include/stdlib.h, lines 892-893:	N368 -{char *gcvt(double __value, int __ndigit, char *__buf);}-> N369
/usr/include/stdlib.h, lines 898-900:	N369 -{char *qecvt(long double __value, int __ndigit, int *__decpt, int *__sign);}-> N370
/usr/include/stdlib.h, lines 901-903:	N370 -{char *qfcvt(long double __value, int __ndigit, int *__decpt, int *__sign);}-> N371
/usr/include/stdlib.h, lines 904-905:	N371 -{char *qgcvt(long double __value, int __ndigit, char *__buf);}-> N372
/usr/include/stdlib.h, lines 910-912:	N372 -{int ecvt_r(double __value, int __ndigit, int *__decpt, int *__sign, char *__buf, size_t __len);}-> N373
/usr/include/stdlib.h, lines 913-915:	N373 -{int fcvt_r(double __value, int __ndigit, int *__decpt, int *__sign, char *__buf, size_t __len);}-> N374
/usr/include/stdlib.h, lines 917-920:	N374 -{int qecvt_r(long double __value, int __ndigit, int *__decpt, int *__sign, char *__buf, size_t __len);}-> N375
/usr/include/stdlib.h, lines 921-924:	N375 -{int qfcvt_r(long double __value, int __ndigit, int *__decpt, int *__sign, char *__buf, size_t __len);}-> N376
/usr/include/stdlib.h, line 930:	N376 -{int mblen(const char *__s, size_t __n);}-> N377
/usr/include/stdlib.h, lines 933-934:	N377 -{int mbtowc(wchar_t *__pwc, const char *__s, size_t __n);}-> N378
/usr/include/stdlib.h, line 937:	N378 -{int wctomb(char *__s, wchar_t __wchar);}-> N379
/usr/include/stdlib.h, lines 941-943:	N379 -{size_t mbstowcs(wchar_t *__pwcs, const char *__s, size_t __n);}-> N380
/usr/include/stdlib.h, lines 945-949:	N380 -{size_t wcstombs(char *__s, const wchar_t *__pwcs, size_t __n);}-> N381
/usr/include/stdlib.h, line 956:	N381 -{int rpmatch(const char *__response);}-> N382
/usr/include/stdlib.h, lines 967-970:	N382 -{int getsubopt(char **__optionp, char * const *__tokens, char **__valuep);}-> N383
/usr/include/stdlib.h, lines 1013-1014:	N383 -{int getloadavg(double __loadavg[], int __nelem);}-> N384
/usr/include/assert.h, lines 69-71:	N384 -{void __assert_fail(const char *__assertion, const char *__file, unsigned int __line, const char *__function);}-> N385
/usr/include/assert.h, lines 74-76:	N385 -{void __assert_perror_fail(int __errnum, const char *__file, unsigned int __line, const char *__function);}-> N386
/usr/include/assert.h, lines 81-82:	N386 -{void __assert(const char *__assertion, const char *__file, int __line);}-> N387
line 6:	N387 -{typedef unsigned char byte;}-> N388
line 7:	N388 -{typedef unsigned char uchar;}-> N389
line 9:	N389 -{typedef uint8_t SORT_1;}-> N390
lines 11-15:	N390 -{void assume(int cond);}-> N391
lines 17-52:	N391 -{int main();}-> N392
lines 59-62:	N392 -{void __assert_func(const char *file, int line, const char *func, const char *expr);}-> N393
none:	N393 -{Function start dummy edge}-> N38
line 18:	N38 -{_Bool bVar1;}-> N39
line 19:	N39 -{byte bVar2;}-> N40
line 20:	N40 -{SORT_1 var_9;}-> N41
	var_9 == 0U;
line 21:	N41 -{SORT_1 var_15_arg_0;}-> N42
	var_15_arg_0 == 1U;
line 22:	N42 -{SORT_1 constr_16_arg_0;}-> N43
	constr_16_arg_0 == 1U;
line 23:	N43 -{uchar expr_tmp_var_60_uchar;}-> N44
line 24:	N44 -{uchar expr_tmp_var_61_uchar;}-> N45
line 26:	N45 -{expr_tmp_var_60_uchar = var_9 & 1;}-> N46
	expr_tmp_var_60_uchar == 0U;
line 27:	N46 -{expr_tmp_var_61_uchar = var_15_arg_0 & 1;}-> N47
	expr_tmp_var_61_uchar == 1U;
line 28:	N47 -{bVar1 = 1;}-> N48
	bVar1 == 1;
	var_9 == 0U;
	var_15_arg_0 == 1U;
	constr_16_arg_0 == 1U;
	expr_tmp_var_60_uchar == 0U;
	expr_tmp_var_61_uchar == 1U;
line 30:	N48 -{do}-> N52
line 31:	N52 -{[!(bVar1 == 0)]}-> N56
	bVar1 == 1;
	bVar1 == 1;
line 31:	N56 -{[!(((_Bool)((~(expr_tmp_var_60_uchar == expr_tmp_var_61_uchar)) & 1)) == 0)]}-> N54
	(_Bool)((~(expr_tmp_var_60_uchar == expr_tmp_var_61_uchar)) & 1) == 1
line 32:	N54 -{bVar2 = 1;}-> N57
	bVar2 == 1U;
none:	N57 -{}-> N53
line 36:	N53 -{assume(bVar2)}-> N31
none:	N31 -{Function start dummy edge}-> N32
	cond == 1;
line 12:	N32 -{[!(cond == 0)]}-> N33
	cond == 1;
	cond == 1;
none:	N33 -{default return}-> N30
line 36:	N30 -{Return edge from assume to main: assume(bVar2);}-> N59
line 38:	N59 -{[!(expr_tmp_var_60_uchar == expr_tmp_var_61_uchar)]}-> N60
	expr_tmp_var_60_uchar == 0U;
	expr_tmp_var_61_uchar == 1U;
	expr_tmp_var_60_uchar == 0U;
expr_tmp_var_61_uchar == 1U;
line 42:	N60 -{[!(((~(constr_16_arg_0 & 1)) & 1) != 0)]}-> N73
	(~(constr_16_arg_0 & 1)) & 1 == 0
line 46:	N73 -{[(constr_16_arg_0 & 1) != 0]}-> N77
	constr_16_arg_0 & 1 == 1
line 47:	N77 -{expr_tmp_var_61_uchar = (~expr_tmp_var_61_uchar) & 1;}-> N78
	expr_tmp_var_61_uchar == 0U;
none:	N78 -{}-> N76
line 50:	N76 -{bVar1 = 0;}-> N79
	bVar1 == 0;
none:	N79 -{}-> N49
line 30:	N49 -{}-> N50
	bVar1 == 0;
line 30:	N50 -{do}-> N52
line 31:	N52 -{[bVar1 == 0]}-> N54
	bVar1 == 0;
	bVar1 == 0;
line 32:	N54 -{bVar2 = 1;}-> N57
	bVar2 == 1U;
none:	N57 -{}-> N53
line 36:	N53 -{assume(bVar2)}-> N31
none:	N31 -{Function start dummy edge}-> N32
	cond == 1;
line 12:	N32 -{[!(cond == 0)]}-> N33
	cond == 1;
	cond == 1;
none:	N33 -{default return}-> N30
line 36:	N30 -{Return edge from assume to main: assume(bVar2);}-> N59
line 38:	N59 -{[expr_tmp_var_60_uchar == expr_tmp_var_61_uchar]}-> N61
	expr_tmp_var_60_uchar == 0U;
	expr_tmp_var_61_uchar == 0U;
	expr_tmp_var_60_uchar == 0U;
expr_tmp_var_61_uchar == 0U;
line 39:	N61 -{int __CPAchecker_TMP_2;}-> N62
line 39:	N62 -{}-> N64
line 39:	N64 -{__CPAchecker_TMP_2 = 0;}-> N66
line 39:	N66 -{4UL;}-> N67
line 39:	N67 -{}-> N70
line 39:	N70 -{__assert_fail("0 && \"Assertion failed: !(bad_17_arg_0)\"", "/home/zyl/biVerify/CPA_DATA2/C/F/llmfix/realOutput/iterationTry/btor2c-lazyMod.noninitstate_process_dc_iter2.c", 39, "__PRETTY_FUNCTION__");}-> N394
